
Gurobi 9.5.0 (win64, Python) logging started Tue Aug  8 10:59:43 2023

Set parameter LogFile to value "data/small_training_set/problems/problem_0170_gurobi.log_gurobi.log"
Restricted license - for non-production use only - expires 2023-10-25

Gurobi 9.5.0 (win64, Python) logging started Mon Aug 28 10:32:58 2023

Set parameter LogFile to value "data/small_training_set/problems/problem_0170_gurobi.log_gurobi.log"
Restricted license - for non-production use only - expires 2023-10-25
